decision_x1=[0,4];
decision_x2=[0,4];
decision_x3=[0,4];
decision_x4=[0,4];
decision_x5=[0,4];
decision_x6=[0,4];
decision_x7=[0,4];
decision_x8=[0,4];
decision_x9=[0,4];
decision_x10=[0,4];
random_y1=[0,4];
random_y2=[0,4];
constraint_x3_x1=[
0,1,6.5|
0,2,6|
0,3,5.7|
0,4,2.9|
1,0,5.8|
1,2,5.6|
1,3,1.3|
1,4,2.4|
2,0,1.6|
2,1,9.9|
2,3,7.5|
2,4,9.9|
3,0,8.1|
3,1,2.8|
3,2,0.61|
3,4,6.2|
4,0,8.1|
4,1,4.2|
4,2,6.3|
4,3,5.6|
];
constraint_x4_x1=[
0,1,2.2|
0,2,2.1|
0,3,8.3|
0,4,3.9|
1,0,3.1|
1,2,3.3|
1,3,2.2|
1,4,8.6|
2,0,7|
2,1,4.4|
2,3,0.62|
2,4,9.1|
3,0,1.7|
3,1,2.3|
3,2,9.7|
3,4,9.7|
4,0,8.1|
4,1,1.3|
4,2,8.6|
4,3,0.46|
];
constraint_x4_x2=[
0,1,0.39|
0,2,8.7|
0,3,3.2|
0,4,0.9|
1,0,6.2|
1,2,7.1|
1,3,5.8|
1,4,9.5|
2,0,2.2|
2,1,5.5|
2,3,9.6|
2,4,1.9|
3,0,1.8|
3,1,6.7|
3,2,6.2|
3,4,2.2|
4,0,4.6|
4,1,4.7|
4,2,1.6|
4,3,2.1|
];
constraint_x6_x1=[
0,1,4.4|
0,2,4.5|
0,3,4.2|
0,4,2.3|
1,0,5.3|
1,2,9.2|
1,3,8.4|
1,4,5.1|
2,0,2.1|
2,1,7.6|
2,3,2.3|
2,4,0.6|
3,0,8.4|
3,1,4|
3,2,5.7|
3,4,7.1|
4,0,2.5|
4,1,9.2|
4,2,6.8|
4,3,7.1|
];
constraint_x6_x2=[
0,1,8.6|
0,2,6.6|
0,3,3.5|
0,4,9.2|
1,0,4.6|
1,2,0.054|
1,3,7.5|
1,4,7|
2,0,6.2|
2,1,1.3|
2,3,2.8|
2,4,1.9|
3,0,7.6|
3,1,3.5|
3,2,0.43|
3,4,7.4|
4,0,3.7|
4,1,0.96|
4,2,9.1|
4,3,0.67|
];
constraint_x6_x3=[
0,1,2|
0,2,6.5|
0,3,3|
0,4,7.3|
1,0,8.1|
1,2,8.5|
1,3,3.8|
1,4,2.3|
2,0,2.2|
2,1,7.9|
2,3,5.5|
2,4,7|
3,0,6.8|
3,1,5.9|
3,2,7.3|
3,4,9.3|
4,0,2.2|
4,1,7.7|
4,2,9.2|
4,3,8.9|
];
constraint_x6_x5=[
0,1,8.6|
0,2,7.1|
0,3,3.5|
0,4,6.7|
1,0,5.6|
1,2,5.1|
1,3,2.8|
1,4,5|
2,0,8.7|
2,1,6|
2,3,2.5|
2,4,7.9|
3,0,9.3|
3,1,9.2|
3,2,4.5|
3,4,2.5|
4,0,7.3|
4,1,0.93|
4,2,9.4|
4,3,6.6|
];
constraint_x7_x2=[
0,1,0.92|
0,2,9|
0,3,9.8|
0,4,6.2|
1,0,2.5|
1,2,9.7|
1,3,3.1|
1,4,6.4|
2,0,2.9|
2,1,4.8|
2,3,3.6|
2,4,2.5|
3,0,7.2|
3,1,6.1|
3,2,6|
3,4,1.9|
4,0,5.1|
4,1,9|
4,2,5.8|
4,3,0.54|
];
constraint_x7_x4=[
0,1,4.9|
0,2,2.8|
0,3,3.5|
0,4,0.88|
1,0,5.3|
1,2,2.5|
1,3,4.2|
1,4,0.074|
2,0,4.2|
2,1,5.5|
2,3,7|
2,4,7.9|
3,0,1.5|
3,1,7.7|
3,2,4.6|
3,4,1.1|
4,0,2.3|
4,1,2|
4,2,4.3|
4,3,4.8|
];
constraint_x7_x5=[
0,1,9.8|
0,2,3.2|
0,3,2.8|
0,4,7.9|
1,0,7.5|
1,2,8.3|
1,3,5.2|
1,4,6.7|
2,0,0.32|
2,1,7.5|
2,3,1.7|
2,4,2.2|
3,0,1.1|
3,1,9.2|
3,2,3.8|
3,4,2.6|
4,0,4.7|
4,1,3.8|
4,2,3.8|
4,3,9.9|
];
constraint_x7_x6=[
0,1,9.3|
0,2,6.3|
0,3,4.8|
0,4,9|
1,0,7.2|
1,2,3.6|
1,3,8.1|
1,4,6.3|
2,0,2.5|
2,1,0.13|
2,3,8.4|
2,4,1.5|
3,0,1.2|
3,1,9.8|
3,2,8.3|
3,4,1.2|
4,0,5.7|
4,1,7.5|
4,2,1.6|
4,3,2.7|
];
constraint_x8_x1=[
0,1,1.6|
0,2,8.5|
0,3,8.4|
0,4,7.8|
1,0,0.81|
1,2,3.7|
1,3,7|
1,4,1.6|
2,0,7.3|
2,1,9.6|
2,3,9.7|
2,4,5|
3,0,4.5|
3,1,8.6|
3,2,5.5|
3,4,4.6|
4,0,2.1|
4,1,8.3|
4,2,8.8|
4,3,2.5|
];
constraint_x8_x2=[
0,1,8.2|
0,2,0.43|
0,3,6.8|
0,4,4.4|
1,0,5.6|
1,2,6.8|
1,3,0.93|
1,4,3.6|
2,0,6.8|
2,1,9.7|
2,3,6.1|
2,4,0.95|
3,0,6.5|
3,1,2.7|
3,2,9.7|
3,4,5.2|
4,0,2.1|
4,1,0.083|
4,2,2.9|
4,3,7.6|
];
constraint_x8_x3=[
0,1,4.4|
0,2,4.9|
0,3,7|
0,4,8.7|
1,0,5.5|
1,2,7.2|
1,3,3.1|
1,4,2.1|
2,0,3.8|
2,1,3.4|
2,3,8.3|
2,4,8|
3,0,2.9|
3,1,1.9|
3,2,3.3|
3,4,2.2|
4,0,5.6|
4,1,7.8|
4,2,6.6|
4,3,4|
];
constraint_x8_x4=[
0,1,4.1|
0,2,3|
0,3,9.1|
0,4,1.3|
1,0,8.6|
1,2,9.9|
1,3,2.1|
1,4,5.8|
2,0,8.9|
2,1,6.9|
2,3,0.095|
2,4,9.4|
3,0,3|
3,1,5.9|
3,2,1.7|
3,4,7.6|
4,0,7.4|
4,1,3.9|
4,2,1.7|
4,3,7.6|
];
constraint_x8_x5=[
0,1,8.4|
0,2,6.7|
0,3,3|
0,4,6.9|
1,0,4.1|
1,2,8.3|
1,3,2.3|
1,4,5.5|
2,0,0.49|
2,1,0.077|
2,3,6.2|
2,4,5.5|
3,0,1.1|
3,1,2.3|
3,2,7.9|
3,4,5.7|
4,0,4.4|
4,1,7|
4,2,6.6|
4,3,7|
];
constraint_x8_x7=[
0,1,2.5|
0,2,6.4|
0,3,4.5|
0,4,3|
1,0,7.4|
1,2,6.3|
1,3,7.1|
1,4,5.4|
2,0,5.3|
2,1,4.4|
2,3,1.9|
2,4,4.2|
3,0,1.4|
3,1,8.6|
3,2,9.9|
3,4,4.5|
4,0,7.3|
4,1,7.5|
4,2,5.2|
4,3,5.1|
];
constraint_x9_x2=[
0,1,4.4|
0,2,2.9|
0,3,1.8|
0,4,8.6|
1,0,8|
1,2,4.8|
1,3,8.1|
1,4,9.8|
2,0,0.023|
2,1,0.31|
2,3,3.8|
2,4,1.4|
3,0,5|
3,1,1.7|
3,2,7.1|
3,4,2.7|
4,0,4|
4,1,0.33|
4,2,3|
4,3,4.2|
];
constraint_x9_x5=[
0,1,7.9|
0,2,5.7|
0,3,4.3|
0,4,5.8|
1,0,4.8|
1,2,3.6|
1,3,4.9|
1,4,2.8|
2,0,2.8|
2,1,2.5|
2,3,4.1|
2,4,7.9|
3,0,6.6|
3,1,3.9|
3,2,7.1|
3,4,7.3|
4,0,6.5|
4,1,3.8|
4,2,5|
4,3,1.7|
];
constraint_x9_x8=[
0,1,1.2|
0,2,8|
0,3,7.8|
0,4,0.57|
1,0,0.35|
1,2,0.091|
1,3,10|
1,4,6|
2,0,9.4|
2,1,7.2|
2,3,2.5|
2,4,7.3|
3,0,8.5|
3,1,6.2|
3,2,9.4|
3,4,6.3|
4,0,9.6|
4,1,6.8|
4,2,0.38|
4,3,4|
];
constraint_x10_x6=[
0,1,0.71|
0,2,7.8|
0,3,3.5|
0,4,0.66|
1,0,5|
1,2,6.1|
1,3,6.8|
1,4,8.9|
2,0,6.7|
2,1,4.4|
2,3,10|
2,4,0.94|
3,0,7.6|
3,1,3.2|
3,2,7.6|
3,4,1.2|
4,0,3.2|
4,1,1.3|
4,2,3.3|
4,3,0.81|
];
constraint_x10_x8=[
0,1,9.6|
0,2,1.3|
0,3,8.3|
0,4,1.2|
1,0,2.6|
1,2,0.58|
1,3,7.1|
1,4,6.4|
2,0,7.7|
2,1,4.8|
2,3,6.4|
2,4,3|
3,0,4.4|
3,1,6.6|
3,2,5.6|
3,4,6|
4,0,7.2|
4,1,1.3|
4,2,8.6|
4,3,5|
];
constraint_x10_x9=[
0,1,0.59|
0,2,1.2|
0,3,8.3|
0,4,4.1|
1,0,8.8|
1,2,8.5|
1,3,4.8|
1,4,8.1|
2,0,0.27|
2,1,0.89|
2,3,4.8|
2,4,2|
3,0,1.7|
3,1,8.3|
3,2,1.8|
3,4,1.7|
4,0,3.3|
4,1,0.95|
4,2,3.8|
4,3,7.3|
];
constraint_x1_y1=[
0,0,9.2|
0,1,1.9|
0,2,0.73|
0,3,3.8|
0,4,3|
1,0,6.7|
1,1,3.6|
1,2,0.48|
1,3,9.8|
1,4,1.1|
2,0,7.7|
2,1,7.5|
2,2,5|
2,3,0.89|
2,4,8.2|
3,0,3|
3,1,5.6|
3,2,6.7|
3,3,2.7|
3,4,6.7|
4,0,5.7|
4,1,5.6|
4,2,9.2|
4,3,3.6|
4,4,3.4|
];
constraint_x2_y2=[
0,0,7|
0,1,9|
0,2,4.1|
0,3,4.8|
0,4,0.52|
1,0,1.5|
1,1,5.2|
1,2,7|
1,3,7|
1,4,1.2|
2,0,7|
2,1,1.2|
2,2,7.7|
2,3,8|
2,4,2.8|
3,0,3.8|
3,1,6.7|
3,2,0.44|
3,3,5.3|
3,4,5.5|
4,0,5.7|
4,1,7.8|
4,2,3.9|
4,3,7.8|
4,4,6.1|
];
initial_distribution_y1=[0.17,0.34,0.14,0.056,0.29];
initial_distribution_y2=[0.24,0.28,0.12,0.12,0.24];
transition_y1=[
0.23,0.047,0.45,0.061,0.2|
0.099,0.1,0.35,0.18,0.27|
0.037,0.38,0.065,0.34,0.18|
0.31,0.19,0.12,0.098,0.28|
0.099,0.27,0.039,0.28,0.31|
];
transition_y2=[
0.2,0.15,0.046,0.25,0.35|
0.29,0.16,0.21,0.17,0.17|
0.023,0.3,0.0097,0.32,0.35|
0.28,0.091,0.27,0.038,0.32|
0.11,0.12,0.63,0.09,0.045|
];
